output/11.out
46 32 17 20 40 50 15 2 37 7 3 12 13 30 44 38 22 39 6 8 35 45 28 29 16 41 11 36 5 21 33 31 18 34 4 25 26 23 9 42 27 1 10 48 19 47 49 14 24 43 
